50
7215 9650 5956 398 6545 6658 1296 8088 364 5871 6225 9462 1680 2190 6765 4832 9184 1597 6599 2135 9318 3671 4158 5107 9300 8402 6248 3189 6276 8809 4660 1485 7896 9883 2972 528 3238 1923 6471 5034 8461 1965 6393 5846 1289 4957 2117 223 3918 3770 
5469 1242 2801 4308 169 4982 9521 4286 8341 9601 205 131 4361 9600 4545 7977 6716 452 4659 6438 1598 1323 6675 3004 6907 2773 761 3746 7873 3490 5460 7740 2771 8669 411 4502 2417 1709 8999 1661 7802 4711 9453 8858 164 9516 5590 7268 1055 7188 
123869
